c
c lexicographical product of
c Mycielski-3
c |V|=25, omega(MxM)=4, Chi_3(MxM)=3
c
p edge 25 150
e 1 2
e 1 4
e 1 6
e 1 7
e 1 8
e 1 9
e 1 10
e 1 16
e 1 17
e 1 18
e 1 19
e 1 20
e 2 3
e 2 6
e 2 7
e 2 8
e 2 9
e 2 10
e 2 16
e 2 17
e 2 18
e 2 19
e 2 20
e 3 5
e 3 6
e 3 7
e 3 8
e 3 9
e 3 10
e 3 16
e 3 17
e 3 18
e 3 19
e 3 20
e 4 5
e 4 6
e 4 7
e 4 8
e 4 9
e 4 10
e 4 16
e 4 17
e 4 18
e 4 19
e 4 20
e 5 6
e 5 7
e 5 8
e 5 9
e 5 10
e 5 16
e 5 17
e 5 18
e 5 19
e 5 20
e 6 7
e 6 9
e 6 11
e 6 12
e 6 13
e 6 14
e 6 15
e 7 8
e 7 11
e 7 12
e 7 13
e 7 14
e 7 15
e 8 10
e 8 11
e 8 12
e 8 13
e 8 14
e 8 15
e 9 10
e 9 11
e 9 12
e 9 13
e 9 14
e 9 15
e 10 11
e 10 12
e 10 13
e 10 14
e 10 15
e 11 12
e 11 14
e 11 21
e 11 22
e 11 23
e 11 24
e 11 25
e 12 13
e 12 21
e 12 22
e 12 23
e 12 24
e 12 25
e 13 15
e 13 21
e 13 22
e 13 23
e 13 24
e 13 25
e 14 15
e 14 21
e 14 22
e 14 23
e 14 24
e 14 25
e 15 21
e 15 22
e 15 23
e 15 24
e 15 25
e 16 17
e 16 19
e 16 21
e 16 22
e 16 23
e 16 24
e 16 25
e 17 18
e 17 21
e 17 22
e 17 23
e 17 24
e 17 25
e 18 20
e 18 21
e 18 22
e 18 23
e 18 24
e 18 25
e 19 20
e 19 21
e 19 22
e 19 23
e 19 24
e 19 25
e 20 21
e 20 22
e 20 23
e 20 24
e 20 25
e 21 22
e 21 24
e 22 23
e 23 25
e 24 25
